cleaned_string_benchmarks/operator-statistics/sv-comp/17747_jbmc-regression_StringMiscellaneous03_Main_14.out
&&	2
<=	3
not	1
str.len	6
assert	4
variable	1
casting	4
<	1
-	3
>=	1
